%%% static parameters %%%
timespan = 1;
initial_fruit_bushes = [40];
initial_foragers = [40];
ticks_to_flee = [100];
bush_growth_chance = [10];
rate_of_mutation = [5.0];
%%% dynamic parameters %%%
mean_strength_th = 0.8102088127753538;
mean_strength_w = 46;
mean_speed_th = 0.9374772695335047;
mean_speed_w = 18;
mean_intelligence_th = 0.08813685733735976;
mean_intelligence_w = 51;
murder_rate_th = 0.035343453945611114;
murder_rate_w = 51;
age_death_rate_th = 0.26370671311530425;
age_death_rate_w = 86;
starvation_rate_th = 0.5544681355018326;
starvation_rate_w = 9;
mean_reactive_aggression_th = 0.028302992190464504;
mean_reactive_aggression_w = 44;
mean_proactive_aggression_th = 0.5317684972579176;
mean_proactive_aggression_w = 90;
average_population_th = 711;
average_population_w = 38;
